
Gurobi 7.5.2 (linux64) logging started Sat Jun 23 16:37:06 2018

Changed value of parameter LogFile to result/ilp/simNo_8-n_100-m_40-s_7-minVAF_0.05-cov_2000-k_2-fn_0.25-fp_0.0001-na_0.15.ILP.gurobiSolverLog
   Prev: gurobi.log  Default: 
Changed value of parameter TimeLimit to 86400.0
   Prev: 1e+100  Min: 0.0  Max: 1e+100  Default: 1e+100
Optimize a model with 1265601 rows, 330440 columns and 3489120 nonzeros
Variable types: 0 continuous, 330440 integer (330440 binary)
Coefficient statistics:
  Matrix range     [1e-03, 2e+00]
  Objective range  [1e+00, 3e+01]
  Bounds range     [1e+00, 1e+00]
  RHS range        [1e-01, 2e+00]
Found heuristic solution: objective -9515.357066
Presolve removed 395598 rows and 226780 columns (presolve time = 5s) ...
Presolve removed 395838 rows and 226780 columns (presolve time = 10s) ...
Presolve removed 395838 rows and 226780 columns (presolve time = 15s) ...
Presolve removed 395838 rows and 226780 columns (presolve time = 20s) ...
Presolve removed 395838 rows and 226780 columns (presolve time = 25s) ...
Presolve removed 395838 rows and 226780 columns (presolve time = 33s) ...
Presolve removed 395838 rows and 226780 columns (presolve time = 36s) ...
Presolve removed 395838 rows and 226780 columns
Presolve time: 35.75s
Presolved: 869763 rows, 103660 columns, 2420160 nonzeros
Variable types: 0 continuous, 103660 integer (103660 binary)
Presolved: 103660 rows, 973423 columns, 2523820 nonzeros

Presolve removed 103660 rows and 973423 columns

Root simplex log...

Iteration    Objective       Primal Inf.    Dual Inf.      Time
       0    5.2243104e+01   0.000000e+00   6.805100e+04     46s
   15899   -1.4084275e+02   0.000000e+00   3.233515e+05     50s
   28931   -1.7129218e+02   0.000000e+00   1.235744e+05     55s
   41420   -1.9904125e+02   0.000000e+00   3.923050e+04     60s
   54995   -2.2922922e+02   0.000000e+00   1.665500e+03     65s
   56710   -2.3030110e+02   0.000000e+00   0.000000e+00     66s
   56710   -2.3030110e+02   0.000000e+00   0.000000e+00     68s

Root relaxation: objective -2.303011e+02, 56710 iterations, 28.88 seconds
Total elapsed time = 70.36s
Total elapsed time = 106.68s
Total elapsed time = 115.67s

    Nodes    |    Current Node    |     Objective Bounds      |     Work
 Expl Unexpl |  Obj  Depth IntInf | Incumbent    BestBd   Gap | It/Node Time

     0     0 -230.30110    0 1121 -9515.3571 -230.30110  97.6%     -  124s
H    0     0                    -243.0714791 -230.30110  5.25%     -  156s
     0     0 -231.29572    0 1120 -243.07148 -231.29572  4.84%     -  176s
     0     0 -231.29572    0 1121 -243.07148 -231.29572  4.84%     -  195s
     0     0 -232.83681    0 1070 -243.07148 -232.83681  4.21%     -  215s
     0     0 -232.83681    0 1070 -243.07148 -232.83681  4.21%     -  241s
     0     0 -233.07221    0 1098 -243.07148 -233.07221  4.11%     -  310s
     0     0 -233.07221    0 1101 -243.07148 -233.07221  4.11%     -  333s
     0     0 -233.56952    0 1108 -243.07148 -233.56952  3.91%     -  354s
     0     0 -233.74402    0 1152 -243.07148 -233.74402  3.84%     -  380s
     0     0 -233.75787    0 1155 -243.07148 -233.75787  3.83%     -  389s
     0     0 -233.75787    0 1157 -243.07148 -233.75787  3.83%     -  397s
     0     0 -234.69597    0 1132 -243.07148 -234.69597  3.45%     -  417s
     0     0 -234.89779    0 1084 -243.07148 -234.89779  3.36%     -  445s
     0     0 -234.91377    0 1083 -243.07148 -234.91377  3.36%     -  454s
     0     0 -234.91377    0 1085 -243.07148 -234.91377  3.36%     -  462s
     0     0 -234.96169    0 1075 -243.07148 -234.96169  3.34%     -  480s
     0     0 -234.96169    0 1070 -243.07148 -234.96169  3.34%     -  497s
     0     0 -235.43162    0 1093 -243.07148 -235.43162  3.14%     -  514s
     0     0 -235.45900    0 1087 -243.07148 -235.45900  3.13%     -  529s
     0     0 -235.45900    0 1088 -243.07148 -235.45900  3.13%     -  536s
     0     0 -235.45900    0 1072 -243.07148 -235.45900  3.13%     -  551s
     0     0 -235.61959    0 1087 -243.07148 -235.61959  3.07%     -  561s
     0     0 -235.61959    0 1091 -243.07148 -235.61959  3.07%     -  570s
     0     0 -235.78795    0 1093 -243.07148 -235.78795  3.00%     -  589s
     0     0 -236.08634    0 1086 -243.07148 -236.08634  2.87%     -  606s
     0     0 -236.12208    0 1082 -243.07148 -236.12208  2.86%     -  614s
     0     0 -236.12208    0 1087 -243.07148 -236.12208  2.86%     -  622s
     0     0 -236.12208    0 1079 -243.07148 -236.12208  2.86%     -  684s
     0     0 -236.12208    0  616 -243.07148 -236.12208  2.86%     -  769s
     0     0 -236.34615    0  608 -243.07148 -236.34615  2.77%     -  779s
     0     0 -236.38759    0  607 -243.07148 -236.38759  2.75%     -  783s
     0     0 -236.38759    0  610 -243.07148 -236.38759  2.75%     -  784s
     0     0 -237.05334    0  616 -243.07148 -237.05334  2.48%     -  787s
     0     0 -237.16101    0  209 -243.07148 -237.16101  2.43%     -  790s
     0     0 -237.19641    0  210 -243.07148 -237.19641  2.42%     -  792s
     0     0 -237.19641    0  211 -243.07148 -237.19641  2.42%     -  793s
     0     0 -237.60105    0  120 -243.07148 -237.60105  2.25%     -  795s
     0     0 -237.60105    0  123 -243.07148 -237.60105  2.25%     -  797s
     0     0 -237.75915    0  211 -243.07148 -237.75915  2.19%     -  799s
     0     0 -237.75915    0  211 -243.07148 -237.75915  2.19%     -  801s
     0     0 -237.96555    0  209 -243.07148 -237.96555  2.10%     -  803s
     0     0 -237.97883    0  218 -243.07148 -237.97883  2.10%     -  805s
     0     0 -237.98627    0  218 -243.07148 -237.98627  2.09%     -  806s
     0     0 -237.98805    0  219 -243.07148 -237.98805  2.09%     -  808s
     0     0 -237.99094    0  218 -243.07148 -237.99094  2.09%     -  809s
     0     0 -238.73236    0  210 -243.07148 -238.73236  1.79%     -  812s
     0     0 -238.90810    0  216 -243.07148 -238.90810  1.71%     -  814s
     0     0 -238.97592    0  214 -243.07148 -238.97592  1.68%     -  816s
     0     0 -238.99204    0  214 -243.07148 -238.99204  1.68%     -  817s
     0     0 -239.00278    0  216 -243.07148 -239.00278  1.67%     -  819s
     0     0 -239.00293    0  216 -243.07148 -239.00293  1.67%     -  820s
     0     0 -239.53711    0  224 -243.07148 -239.53711  1.45%     -  823s
     0     0 -239.59030    0  117 -243.07148 -239.59030  1.43%     -  826s
     0     0 -239.59196    0  217 -243.07148 -239.59196  1.43%     -  828s
     0     0 -239.63900    0  219 -243.07148 -239.63900  1.41%     -  829s
     0     0 -239.63900    0  219 -243.07148 -239.63900  1.41%     -  831s
     0     0 -239.63900    0  221 -243.07148 -239.63900  1.41%     -  833s
     0     0 -239.64985    0  224 -243.07148 -239.64985  1.41%     -  835s
     0     0 -239.65137    0  224 -243.07148 -239.65137  1.41%     -  836s
     0     0 -239.86367    0  201 -243.07148 -239.86367  1.32%     -  840s
     0     0 -239.86367    0  205 -243.07148 -239.86367  1.32%     -  842s
     0     0 -239.96355    0  215 -243.07148 -239.96355  1.28%     -  845s
     0     0 -240.06870    0  215 -243.07148 -240.06870  1.24%     -  848s
     0     0 -240.10637    0  622 -243.07148 -240.10637  1.22%     -  849s
     0     0 -240.10637    0  624 -243.07148 -240.10637  1.22%     -  851s
     0     0 -240.54263    0  208 -243.07148 -240.54263  1.04%     -  853s
     0     0 -240.59091    0  207 -243.07148 -240.59091  1.02%     -  855s
     0     0 -240.64620    0  208 -243.07148 -240.64620  1.00%     -  856s
     0     0 -240.66494    0  210 -243.07148 -240.66494  0.99%     -  857s
     0     0 -240.66494    0  210 -243.07148 -240.66494  0.99%     -  859s
     0     0 -240.85829    0  205 -243.07148 -240.85829  0.91%     -  860s
     0     0 -240.98579    0  209 -243.07148 -240.98579  0.86%     -  862s
     0     0 -240.98579    0  212 -243.07148 -240.98579  0.86%     -  864s
     0     0 -241.09173    0  213 -243.07148 -241.09173  0.81%     -  866s
     0     0 -241.09197    0  214 -243.07148 -241.09197  0.81%     -  868s
     0     0 -241.09222    0  213 -243.07148 -241.09222  0.81%     -  870s
     0     0 -241.09715    0  212 -243.07148 -241.09715  0.81%     -  872s
     0     0 -241.11189    0  212 -243.07148 -241.11189  0.81%     -  874s
     0     0 -241.11189    0  214 -243.07148 -241.11189  0.81%     -  875s
     0     0 -241.11345    0  207 -243.07148 -241.11345  0.81%     -  880s
     0     0 -241.11345    0  210 -243.07148 -241.11345  0.81%     -  882s
     0     0 -241.16372    0  214 -243.07148 -241.16372  0.78%     -  885s
     0     0 -241.18151    0  214 -243.07148 -241.18151  0.78%     -  887s
     0     0 -241.18536    0  213 -243.07148 -241.18536  0.78%     -  889s
     0     0 -241.18536    0  214 -243.07148 -241.18536  0.78%     -  890s
     0     0 -241.18536    0  211 -243.07148 -241.18536  0.78%     -  892s
     0     0 -241.18536    0  211 -243.07148 -241.18536  0.78%     -  894s
     0     0 -241.20991    0  210 -243.07148 -241.20991  0.77%     -  896s
     0     0 -241.22794    0  618 -243.07148 -241.22794  0.76%     -  898s
     0     0 -241.23128    0  205 -243.07148 -241.23128  0.76%     -  900s
     0     0 -241.23128    0  208 -243.07148 -241.23128  0.76%     -  901s
     0     0 -241.23128    0  209 -243.07148 -241.23128  0.76%     -  904s
     0     0 -241.23128    0  208 -243.07148 -241.23128  0.76%     -  906s
     0     0 -241.23128    0  201 -243.07148 -241.23128  0.76%     -  908s
     0     0 -241.23128    0  208 -243.07148 -241.23128  0.76%     -  910s
     0     0 -241.26108    0  208 -243.07148 -241.26108  0.74%     -  915s
     0     0 -241.30587    0  211 -243.07148 -241.30587  0.73%     -  916s
     0     0 -241.30587    0  215 -243.07148 -241.30587  0.73%     -  918s
     0     0 -241.44673    0  201 -243.07148 -241.44673  0.67%     -  920s
     0     0 -241.58536    0  616 -243.07148 -241.58536  0.61%     -  923s
     0     0 -241.60426    0  204 -243.07148 -241.60426  0.60%     -  925s
     0     0 -241.60426    0  212 -243.07148 -241.60426  0.60%     -  927s
     0     0 -241.64163    0  210 -243.07148 -241.64163  0.59%     -  929s
     0     0 -241.66471    0  208 -243.07148 -241.66471  0.58%     -  931s
     0     0 -241.66471    0  206 -243.07148 -241.66471  0.58%     -  932s
     0     0 -241.71623    0  205 -243.07148 -241.71623  0.56%     -  935s
     0     0 -241.71623    0  205 -243.07148 -241.71623  0.56%     -  937s
     0     0 -241.75850    0  211 -243.07148 -241.75850  0.54%     -  939s
     0     0 -241.76179    0  208 -243.07148 -241.76179  0.54%     -  941s
     0     0 -241.76179    0  208 -243.07148 -241.76179  0.54%     -  942s
     0     0 -241.77372    0  211 -243.07148 -241.77372  0.53%     -  945s
     0     0 -241.77692    0  216 -243.07148 -241.77692  0.53%     -  947s
     0     0 -241.77837    0  217 -243.07148 -241.77837  0.53%     -  949s
     0     0 -241.78045    0  217 -243.07148 -241.78045  0.53%     -  950s
     0     0 -241.78045    0  217 -243.07148 -241.78045  0.53%     -  951s
     0     0 -241.82092    0  208 -243.07148 -241.82092  0.51%     -  953s
     0     0 -241.82254    0  210 -243.07148 -241.82254  0.51%     -  955s
     0     0 -241.82357    0  213 -243.07148 -241.82357  0.51%     -  957s
     0     0 -241.89111    0  207 -243.07148 -241.89111  0.49%     -  959s
     0     0 -241.89770    0  212 -243.07148 -241.89770  0.48%     -  961s
     0     0 -241.93078    0  211 -243.07148 -241.93078  0.47%     -  962s
     0     0 -241.94947    0  211 -243.07148 -241.94947  0.46%     -  964s
     0     0 -241.94947    0  209 -243.07148 -241.94947  0.46%     -  965s
     0     0 -241.95447    0  211 -243.07148 -241.95447  0.46%     -  967s
     0     0 -241.95715    0  212 -243.07148 -241.95715  0.46%     -  969s
     0     0 -241.95715    0  213 -243.07148 -241.95715  0.46%     -  970s
     0     0 -241.95715    0  211 -243.07148 -241.95715  0.46%     -  972s
     0     0 -241.95715    0  212 -243.07148 -241.95715  0.46%     -  974s
     0     0 -241.95715    0  212 -243.07148 -241.95715  0.46%     -  977s
     0     0     cutoff    0      -243.07148 -243.07148  0.00%     - 1002s

Cutting planes:
  Gomory: 2
  Implied bound: 2
  Clique: 60
  Zero half: 78

Explored 1 nodes (88755 simplex iterations) in 1002.67 seconds
Thread count was 1 (of 80 available processors)

Solution count 3: -243.071 -243.071 -9515.36 

Optimal solution found (tolerance 1.00e-04)
Best objective -2.430714790514e+02, best bound -2.430714790514e+02, gap 0.0000%
